NAME : optical-integer.pruned_local_4.tour
TYPE : TOUR
DIMENSION : 174
TOUR_SECTION
1
104
105
109
123
124
125
126
127
129
130
132
133
134
145
146
2
39
42
43
44
46
52
55
97
138
139
142
143
147
150
151
152
153
156
157
161
166
3
57
58
61
62
65
66
69
70
73
74
77
78
81
82
85
89
90
91
93
103
111
112
116
131
136
169
170
171
4
56
59
60
63
64
67
68
71
72
75
76
79
80
83
84
87
96
98
100
115
118
119
173
174
5
37
40
41
53
54
86
101
106
110
113
114
121
135
159
165
167
168
172
6
48
137
140
141
144
148
149
154
155
158
160
162
163
164
7
10
11
14
15
18
19
22
23
26
27
30
31
34
35
47
49
99
107
108
8
9
12
13
16
17
20
21
24
25
28
29
32
33
36
38
45
50
51
88
92
94
95
102
117
120
122
128
-1
EOF
